p edge 81 40
e 1 2
e 3 4
e 5 6
e 7 8
e 9 18
e 10 11
e 12 13
e 14 15
e 16 17
e 19 20
e 21 22
e 23 24
e 25 26
e 27 36
e 28 29
e 30 31
e 32 33
e 34 35
e 37 38
e 39 40
e 41 42
e 43 44
e 45 54
e 46 47
e 48 49
e 50 51
e 52 53
e 55 56
e 57 58
e 59 60
e 61 62
e 63 72
e 64 65
e 66 67
e 68 69
e 70 71
e 73 74
e 75 76
e 77 78
e 79 80
